c SAT Generator for power-law distributed variable frequencies
c -g u -v 20 -c 91 -k 3 -p 2.750000 -b 3.200000 -f /home/schmidt/Devel/ni-kop-sat/data/ensemble/ruf20-91/ruf20-91-615 -u 1 -U 1 -s 1218544258
p cnf 20 91
-4 9 10 0
2 -3 4 0
1 -5 -20 0
-2 -6 13 0
1 -6 -13 0
5 10 12 0
6 7 20 0
1 5 7 0
3 9 -18 0
-2 9 -13 0
9 -14 -20 0
-9 12 -20 0
-8 -10 16 0
-8 10 11 0
1 -4 -8 0
-2 -6 7 0
3 -13 -18 0
8 -10 18 0
-2 6 12 0
8 9 14 0
-5 11 -18 0
1 -4 14 0
2 -16 -20 0
2 6 -18 0
-10 -18 -20 0
1 -4 -12 0
4 5 -16 0
2 -6 -10 0
-1 17 18 0
11 13 -20 0
1 6 -19 0
2 -5 17 0
-1 9 -14 0
4 5 9 0
-1 -4 -13 0
5 9 -14 0
-4 -10 18 0
-6 -8 -11 0
-3 -4 13 0
-2 5 18 0
-5 -14 -18 0
2 7 18 0
4 11 16 0
11 -16 17 0
2 -3 15 0
1 -14 20 0
-12 15 -20 0
-2 6 -18 0
-5 9 20 0
-3 15 -17 0
-7 -11 -13 0
6 15 -16 0
-10 14 20 0
2 -6 10 0
3 8 -16 0
1 2 11 0
11 13 15 0
-5 -6 -19 0
3 8 16 0
-5 11 -12 0
2 10 17 0
9 19 20 0
-5 6 -13 0
-4 12 17 0
-3 -11 15 0
-14 17 19 0
2 -6 -13 0
-3 -6 19 0
-7 -13 15 0
5 9 18 0
5 19 20 0
9 13 20 0
-12 -13 18 0
1 -15 -16 0
5 14 -16 0
2 7 11 0
-2 5 17 0
6 -11 -14 0
3 9 -15 0
-3 -12 -17 0
2 -3 -5 0
-1 -6 19 0
-4 -8 -19 0
-3 -10 18 0
-1 -3 -13 0
10 -15 -20 0
-6 16 18 0
5 -14 20 0
-7 -9 19 0
-1 -2 14 0
8 11 -13 0
